NAME : AA50.1775019.tour
COMMENT : Cost = 0_1775019
COMMENT : Found by LKH [Keld Helsgaun] Sun Apr 23 15:14:35 2017
TYPE : TOUR
DIMENSION : 104
TOUR_SECTION
1
10
60
13
63
11
61
36
86
27
77
23
73
46
96
33
39
83
89
30
28
80
78
102
31
81
41
91
32
12
82
62
45
95
37
87
35
85
40
90
7
57
6
56
42
92
8
58
3
53
47
97
103
48
18
98
68
15
65
4
54
51
101
19
69
20
9
70
59
14
64
22
72
49
99
34
84
104
50
100
17
67
25
75
2
43
52
24
93
74
29
79
26
44
76
94
16
66
21
5
55
71
38
88
-1
EOF
